********************************************************************************
Field Output Report, written Thu Apr 26 19:54:54 2018

Source 1
---------

   ODB: /home/fe1/Desktop/FiniteElementsAnalysis/assignment3/Job-1.odb
   Step: My_Step
   Frame: Increment     10: Step Time =   0.3816

Loc 1 : Integration point values from source 1

Output sorted by column "Element Label".

Field Output reported at integration points for part: PLATE-1

   Element Label             Int         S.Mises
                              Pt          @Loc 1
-------------------------------------------------
               1               1            220.
               2               1            220.
               3               1            220.
               4               1            220.
               5               1            220.
               6               1            220.
               7               1            220.
               8               1            220.
               9               1            220.
              10               1            220.
              11               1            220.
              12               1            220.
              13               1            220.
              14               1            220.
              15               1            220.
              16               1         51.0194
              17               1         43.1678
              18               1         94.9195
              19               1         16.8565
              20               1         22.0784
              21               1         37.5156
              22               1         28.6651
              23               1         23.8887
              24               1         33.1549
              25               1         1.69468
              26               1         7.41397
              27               1         24.8306
              28               1         3.99326
              29               1         10.4951
              30               1         20.0446
              31               1         6.39350
              32               1         11.8192
              33               1         18.5128
              34               1         7.96253
              35               1         11.2464
              36               1         16.6349
              37               1         8.16893
              38               1         10.7184
              39               1         15.0122
              40               1         8.05069
              41               1         9.98097
              42               1         13.4707
              43               1         7.79521
              44               1         9.17064
              45               1         11.9506
              46               1         7.44039
              47               1         8.38488
              48               1         10.4845
              49               1         7.03812
              50               1         7.60531
              51               1         9.09165
              52               1         6.59088
              53               1         6.85015
              54               1         7.77583
              55               1         6.10729
              56               1         6.11557
              57               1         6.55167
              58               1         5.58924
              59               1         5.40893
              60               1         5.42073
              61               1         5.04239
              62               1         4.72653
              63               1         4.39072
              64               1         4.46842
              65               1         4.07016
              66               1         3.46209
              67               1         3.87153
              68               1         3.43325
              69               1         2.63960
              70               1         3.25504
              71               1         2.81013
              72               1         1.92284
              73               1         2.62466
              74               1         2.18900
              75               1         1.31444
              76               1         1.98129
              77               1         1.56406
              78               1     811.697E-03
              79               1         1.30181
              80               1     951.928E-03
              81               1     426.136E-03
              82               1     506.662E-03
              83               1     498.498E-03
              84               1     242.035E-03
              85               1            220.
              86               1            220.
              87               1            220.
              88               1            220.
              89               1            220.
              90               1            220.
              91               1            220.
              92               1            220.
              93               1            220.
              94               1            220.
              95               1            220.
              96               1            220.
              97               1            220.
              98               1            220.
              99               1            220.
             100               1         94.9195
             101               1         43.1678
             102               1         51.0194
             103               1         37.5157
             104               1         22.0785
             105               1         16.8565
             106               1         33.1549
             107               1         23.8887
             108               1         28.6651
             109               1         24.8306
             110               1         7.41396
             111               1         1.69468
             112               1         20.0447
             113               1         10.4951
             114               1         3.99326
             115               1         18.5128
             116               1         11.8193
             117               1         6.39350
             118               1         16.6349
             119               1         11.2464
             120               1         7.96254
             121               1         15.0123
             122               1         10.7184
             123               1         8.16894
             124               1         13.4707
             125               1         9.98098
             126               1         8.05069
             127               1         11.9506
             128               1         9.17064
             129               1         7.79521
             130               1         10.4845
             131               1         8.38490
             132               1         7.44041
             133               1         9.09165
             134               1         7.60531
             135               1         7.03812
             136               1         7.77583
             137               1         6.85015
             138               1         6.59088
             139               1         6.55167
             140               1         6.11557
             141               1         6.10728
             142               1         5.42074
             143               1         5.40894
             144               1         5.58925
             145               1         4.39072
             146               1         4.72652
             147               1         5.04239
             148               1         3.46209
             149               1         4.07016
             150               1         4.46842
             151               1         2.63961
             152               1         3.43326
             153               1         3.87154
             154               1         1.92284
             155               1         2.81013
             156               1         3.25504
             157               1         1.31444
             158               1         2.18900
             159               1         2.62467
             160               1     811.697E-03
             161               1         1.56406
             162               1         1.98129
             163               1     426.137E-03
             164               1     951.930E-03
             165               1         1.30181
             166               1     242.035E-03
             167               1     498.498E-03
             168               1     506.663E-03


  Minimum                            242.035E-03
      At Element                              84
          Int Pt                               1

  Maximum                                   220.
      At Element                              99
          Int Pt                               1

           Total                     8.10317E+03


